NAME : graph25
COMMENT : H Algorithm Solution by Oscar Riveros [http://twitter.com/maxtuno]
TYPE : TOUR
DIMENSION : 204
TOUR_SECTION
101
192
75
103
24
157
72
77
60
36
164
6
134
149
115
68
162
83
119
23
184
114
19
168
92
85
193
126
127
7
45
10
56
124
3
67
113
197
158
76
145
154
50
176
105
32
43
31
35
65
198
52
118
98
183
117
48
121
25
163
57
153
111
49
188
195
95
39
139
159
82
37
200
150
27
53
194
61
146
201
96
143
166
73
20
129
177
30
189
2
42
44
199
47
182
94
88
169
54
74
4
41
91
191
80
147
14
144
93
34
137
38
203
160
59
180
89
186
40
165
108
63
71
28
33
69
175
29
107
9
87
17
15
181
106
136
62
138
140
13
172
26
8
12
133
21
90
120
161
102
202
190
79
178
131
148
99
18
112
174
132
58
97
81
170
152
128
196
104
78
185
100
173
141
155
123
46
204
84
5
151
22
66
55
16
179
11
187
1
51
116
156
125
171
130
167
70
64
122
86
110
142
109
135
-1
EOF
